BEGIN IONS
STANDARD=Glabridin光甘草定
Chinese_name=豆薯
Latin_name=Pachyrhizus erosus
Tissue=leaves
PRECURSOR_MZ=325.145758
SCORE=0.813568
matched_spectrum_id=39743
SMILES=CC1(C)C=Cc2c(ccc3c2OCC(c2ccc(O)cc2O)C3)O1
DATABASE=ATNP
IONMODE=positive
TITLE=VGF139_H07_pos.mgf
FEATURE_ID=2116
PEPMASS=325.145758271349
SCANS=2116
RTINSECONDS=3.9026
CHARGE=1+
MSLEVEL=2
51.184043884277344 3117.673095703125
51.28940963745117 2761.1240234375
51.826332092285156 2733.6904296875
53.790252685546875 2721.24072265625
56.50164031982422 2657.469970703125
57.08258819580078 2640.0654296875
58.260597229003906 2999.047119140625
66.6604995727539 2871.282470703125
67.05538177490234 3603.330322265625
67.59672546386719 3145.38427734375
68.99796295166016 3850.98291015625
69.41041564941406 2862.621826171875
81.0708236694336 4620.91455078125
82.98406219482422 3208.3349609375
91.05525207519531 3341.5908203125
98.18363952636719 3474.03857421875
105.07087707519531 5841.912109375
113.59423828125 3636.31591796875
119.55586242675781 3354.530517578125
121.06539916992188 7229.654296875
122.44100952148438 3289.04150390625
123.0447998046875 269051.84375
133.10108947753906 4721.859375
135.5107421875 3327.369140625
143.0861358642578 16900.82421875
145.10165405273438 4810.3564453125
147.0440216064453 5548.60498046875
149.06033325195312 69488.5703125
161.0961456298828 14012.7568359375
167.03619384765625 3346.807861328125
171.0813751220703 43575.921875
173.06100463867188 3444.568603515625
174.06764221191406 6704.11083984375
189.0917510986328 243005.0
189.68463134765625 3424.29638671875
203.1075897216797 34724.40625
215.107177734375 13638.662109375
310.04840087890625 6878.3056640625
310.11737060546875 4154.68310546875
314.9360656738281 3206.759765625
325.0725402832031 41511.44140625
325.1445617675781 126180.9296875
325.2060546875 3230.287109375
END IONS