BEGIN IONS
STANDARD_ID=12885
TITLE=Abrine
COMPOUND_NAME=Abrine
PRECURSOR_MZ=188.07
ADDUCT=[M+H]+
PARENT_MASS=187.062724
SMILES=C[NH2+][C@@H](Cc1c[nH]c2cccc(CC=C(C)C)c12)C([O-])=O
IONMODE=positive
INCHIKEY=QQMWUGXCTSAHLX-HNNXBMFYSA-N
DATABASE=GNPS
PLANTS=[P1:Chinese_name=赤豆;Latin_name=Vigna angularis;Tissue=seed;matched_spectrum_id=12885];[P2:Chinese_name=胡卢巴;Latin_name=Trigonella foenum-graecum;Tissue=seed;matched_spectrum_id=12885];[P3:Chinese_name=何首乌;Latin_name=Pleuropterus multiflorus;Tissue=whole;matched_spectrum_id=12885];[P4:Chinese_name=川芎;Latin_name=Cnidium officinale;Tissue=rhizome;matched_spectrum_id=12885];[P5:Chinese_name=日本黄连;Latin_name=Coptis japonica;Tissue=root;matched_spectrum_id=12885];[P6:Chinese_name=野蓟;Latin_name=Cirsium maackii;Tissue=whole;matched_spectrum_id=12885];[P7:Chinese_name=明日叶;Latin_name=Angelica keiskei;Tissue=Root;matched_spectrum_id=12885];[P8:Chinese_name=平叶欧芹;Latin_name=Petroselinum crispum var. neapolitanum;Tissue=Leaf 2;matched_spectrum_id=12885];[P9:Chinese_name=卷叶欧芹;Latin_name=Petroselinum crispum var. crispum;Tissue=Leaf 4;matched_spectrum_id=12885];[P10:Chinese_name=日本当归;Latin_name=Angelica acutiloba;Tissue=Leaf;matched_spectrum_id=12885];[P11:Chinese_name=平叶欧芹;Latin_name=Petroselinum crispum var. neapolitanum;Tissue=Petiole 3;matched_spectrum_id=12885];[P12:Chinese_name=白芷;Latin_name=Angelica dahurica;Tissue=Flower;matched_spectrum_id=12885];[P13:Chinese_name=藁本;Latin_name=Saposhnikovia divaricata;Tissue=Stem;matched_spectrum_id=12885];[P14:Chinese_name=明党参;Latin_name=Changium smyrnioides;Tissue=Stem;matched_spectrum_id=12885];[P15:Chinese_name=水芹;Latin_name=Oenanthe javanica;Tissue=Stem;matched_spectrum_id=12885];[P16:Chinese_name=独活;Latin_name=Angelica pubescens;Tissue=Root;matched_spectrum_id=12885];[P17:Chinese_name=平叶欧芹;Latin_name=Petroselinum crispum var. neapolitanum;Tissue=Leaf 1;matched_spectrum_id=12885];[P18:Chinese_name=宽叶羌活;Latin_name=Notopterygium forbesii;Tissue=Leaf;matched_spectrum_id=12885];[P19:Chinese_name=白芷;Latin_name=Angelica dahurica;Tissue=Root D;matched_spectrum_id=12885];[P20:Chinese_name=卷叶欧芹;Latin_name=Petroselinum crispum var. crispum;Tissue=Leaf 1;matched_spectrum_id=12885];[P21:Chinese_name=卷叶欧芹;Latin_name=Petroselinum crispum var. crispum;Tissue=Leaf 2;matched_spectrum_id=12885];[P22:Chinese_name=欧防风;Latin_name=Aegopodium podagraria;Tissue=Stem;matched_spectrum_id=12885];[P23:Chinese_name=平叶欧芹;Latin_name=Petroselinum crispum var. neapolitanum;Tissue=Petiole 6;matched_spectrum_id=12885];[P24:Chinese_name=蛇床子;Latin_name=Cnidium monnieri;Tissue=Mature seed;matched_spectrum_id=12885];[P25:Chinese_name=莳萝;Latin_name=Anethum graveolens;Tissue=Root;matched_spectrum_id=12885];[P26:Chinese_name=蛇床子;Latin_name=Cnidium monnieri;Tissue=Root;matched_spectrum_id=12885];[P27:Chinese_name=日本当归;Latin_name=Angelica acutiloba;Tissue=Taproot;matched_spectrum_id=12885];[P28:Chinese_name=卷叶欧芹;Latin_name=Petroselinum crispum var. crispum;Tissue=Leaf 3;matched_spectrum_id=12885];[P29:Chinese_name=明日叶;Latin_name=Angelica keiskei;Tissue=Old leaf;matched_spectrum_id=12885];[P30:Chinese_name=变豆菜;Latin_name=Psoralea corylifolia;Tissue=Stem;matched_spectrum_id=12885];[P31:Chinese_name=平叶欧芹;Latin_name=Petroselinum crispum var. neapolitanum;Tissue=Root 3;matched_spectrum_id=12885];[P32:Chinese_name=欧当归;Latin_name=Angelica archangelica;Tissue=Old root;matched_spectrum_id=12885];[P33:Chinese_name=水芹;Latin_name=Oenanthe javanica;Tissue=Leaf;matched_spectrum_id=12885];[P34:Chinese_name=卷叶欧芹;Latin_name=Petroselinum crispum var. crispum;Tissue=Root 6;matched_spectrum_id=12885];[P35:Chinese_name=白芷;Latin_name=Angelica dahurica;Tissue=Root C;matched_spectrum_id=12885];[P36:Chinese_name=白芷;Latin_name=Angelica dahurica;Tissue=Root A;matched_spectrum_id=12885];[P37:Chinese_name=卷叶欧芹;Latin_name=Petroselinum crispum var. crispum;Tissue=Petiole 4;matched_spectrum_id=12885];[P38:Chinese_name=欧防风;Latin_name=Aegopodium podagraria;Tissue=Leaf;matched_spectrum_id=12885];[P39:Chinese_name=卷叶欧芹;Latin_name=Petroselinum crispum var. crispum;Tissue=Root 3;matched_spectrum_id=12885];[P40:Chinese_name=朝鲜当归;Latin_name=Angelica gigas;Tissue=Leaf;matched_spectrum_id=12885];[P41:Chinese_name=卷叶欧芹;Latin_name=Petroselinum crispum var. crispum;Tissue=Root 5;matched_spectrum_id=12885];[P42:Chinese_name=平叶欧芹;Latin_name=Petroselinum crispum var. neapolitanum;Tissue=Petiole 2;matched_spectrum_id=12885];[P43:Chinese_name=毒芹;Latin_name=Aethusa cynapium;Tissue=Leaf;matched_spectrum_id=12885];[P44:Chinese_name=白芷;Latin_name=Angelica dahurica;Tissue=Root F;matched_spectrum_id=12885];[P45:Chinese_name=葛缕子;Latin_name=Schisandra chinensis;Tissue=Stem;matched_spectrum_id=12885];[P46:Chinese_name=平叶欧芹;Latin_name=Petroselinum crispum var. neapolitanum;Tissue=Petiole 5;matched_spectrum_id=12885];[P47:Chinese_name=葛缕子;Latin_name=Schisandra chinensis;Tissue=Leaf;matched_spectrum_id=12885];[P48:Chinese_name=卷叶欧芹;Latin_name=Petroselinum crispum var. crispum;Tissue=Petiole 2;matched_spectrum_id=12885];[P49:Chinese_name=卷叶欧芹;Latin_name=Petroselinum crispum var. crispum;Tissue=Petiole 6;matched_spectrum_id=12885];[P50:Chinese_name=日本当归;Latin_name=Angelica acutiloba;Tissue=Stem;matched_spectrum_id=12885];[P51:Chinese_name=毒参;Latin_name=Aconitum;Tissue=Leaf;matched_spectrum_id=12885];[P52:Chinese_name=变豆菜;Latin_name=Psoralea corylifolia;Tissue=Leaf;matched_spectrum_id=12885];[P53:Chinese_name=毒参;Latin_name=Aconitum;Tissue=Root;matched_spectrum_id=12885];[P54:Chinese_name=毒芹;Latin_name=Aethusa cynapium;Tissue=Stem;matched_spectrum_id=12885];[P55:Chinese_name=欧防风;Latin_name=Aegopodium podagraria;Tissue=Flower;matched_spectrum_id=12885];[P56:Chinese_name=白芷;Latin_name=Angelica dahurica;Tissue=Root E;matched_spectrum_id=12885];[P57:Chinese_name=平叶欧芹;Latin_name=Petroselinum crispum var. neapolitanum;Tissue=Leaf 5;matched_spectrum_id=12885];[P58:Chinese_name=平叶欧芹;Latin_name=Petroselinum crispum var. neapolitanum;Tissue=Root 2;matched_spectrum_id=12885];[P59:Chinese_name=藁本;Latin_name=Saposhnikovia divaricata;Tissue=Leaf;matched_spectrum_id=12885];[P60:Chinese_name=朝鲜当归;Latin_name=Angelica gigas;Tissue=Inflorescence;matched_spectrum_id=12885];[P61:Chinese_name=宽叶羌活;Latin_name=Notopterygium forbesii;Tissue=Rootlet;matched_spectrum_id=12885];[P62:Chinese_name=朝鲜当归;Latin_name=Angelica gigas;Tissue=Stem;matched_spectrum_id=12885];[P63:Chinese_name=藁本;Latin_name=Saposhnikovia divaricata;Tissue=Young leaf;matched_spectrum_id=12885];[P64:Chinese_name=卷叶欧芹;Latin_name=Petroselinum crispum var. crispum;Tissue=Root 1;matched_spectrum_id=12885];[P65:Chinese_name=莳萝;Latin_name=Anethum graveolens;Tissue=Stem;matched_spectrum_id=12885];[P66:Chinese_name=平叶欧芹;Latin_name=Petroselinum crispum var. neapolitanum;Tissue=Leaf 4;matched_spectrum_id=12885];[P67:Chinese_name=明日叶;Latin_name=Angelica keiskei;Tissue=Stem;matched_spectrum_id=12885];[P68:Chinese_name=毒芹;Latin_name=Aethusa cynapium;Tissue=Petiole;matched_spectrum_id=12885];[P69:Chinese_name=防风;Latin_name=Saposhnikovia divaricata;Tissue=Stem;matched_spectrum_id=12885];[P70:Chinese_name=平叶欧芹;Latin_name=Petroselinum crispum var. neapolitanum;Tissue=Petiole 1;matched_spectrum_id=12885];[P71:Chinese_name=朝鲜当归;Latin_name=Angelica gigas;Tissue=Taproot;matched_spectrum_id=12885];[P72:Chinese_name=日本当归;Latin_name=Angelica acutiloba;Tissue=Inflorescence;matched_spectrum_id=12885];[P73:Chinese_name=白芷;Latin_name=Angelica dahurica;Tissue=Stem;matched_spectrum_id=12885];[P74:Chinese_name=欧当归;Latin_name=Angelica archangelica;Tissue=Leaf;matched_spectrum_id=12885];[P75:Chinese_name=蛇床子;Latin_name=Cnidium monnieri;Tissue=Young seed;matched_spectrum_id=12885];[P76:Chinese_name=莳萝;Latin_name=Anethum graveolens;Tissue=Leaf;matched_spectrum_id=12885];[P77:Chinese_name=平叶欧芹;Latin_name=Petroselinum crispum var. neapolitanum;Tissue=Leaf 6;matched_spectrum_id=12885];[P78:Chinese_name=平叶欧芹;Latin_name=Petroselinum crispum var. neapolitanum;Tissue=Leaf 3;matched_spectrum_id=12885];[P79:Chinese_name=朝鲜当归;Latin_name=Angelica gigas;Tissue=Fibrous root;matched_spectrum_id=12885];[P80:Chinese_name=当归;Latin_name=Angelica sinensis;Tissue=Young Shoots;matched_spectrum_id=12885];[P81:Chinese_name=日本当归;Latin_name=Angelica acutiloba;Tissue=Fibrous root;matched_spectrum_id=12885];[P82:Chinese_name=当归;Latin_name=Angelica sinensis;Tissue=Leaf;matched_spectrum_id=12885];[P83:Chinese_name=平叶欧芹;Latin_name=Petroselinum crispum var. neapolitanum;Tissue=Root 5;matched_spectrum_id=12885];[P84:Chinese_name=茴芹;Latin_name=Anethum graveolens;Tissue=Root;matched_spectrum_id=12885];[P85:Chinese_name=欧当归;Latin_name=Angelica archangelica;Tissue=Young root;matched_spectrum_id=12885];[P86:Chinese_name=平叶欧芹;Latin_name=Petroselinum crispum var. neapolitanum;Tissue=Root 1;matched_spectrum_id=12885];[P87:Chinese_name=蛇床子;Latin_name=Cnidium monnieri;Tissue=Stem;matched_spectrum_id=12885];[P88:Chinese_name=宽叶羌活;Latin_name=Notopterygium forbesii;Tissue=Root;matched_spectrum_id=12885];[P89:Chinese_name=卷叶欧芹;Latin_name=Petroselinum crispum var. crispum;Tissue=Petiole 5;matched_spectrum_id=12885];[P90:Chinese_name=独活;Latin_name=Angelica pubescens;Tissue=Leaf;matched_spectrum_id=12885];[P91:Chinese_name=毒参;Latin_name=Aconitum;Tissue=Stem;matched_spectrum_id=12885];[P92:Chinese_name=卷叶欧芹;Latin_name=Petroselinum crispum var. crispum;Tissue=Root 2;matched_spectrum_id=12885];[P93:Chinese_name=卷叶欧芹;Latin_name=Petroselinum crispum var. crispum;Tissue=Leaf 6;matched_spectrum_id=12885];[P94:Chinese_name=平叶欧芹;Latin_name=Petroselinum crispum var. neapolitanum;Tissue=Petiole 4;matched_spectrum_id=12885];[P95:Chinese_name=欧防风;Latin_name=Aegopodium podagraria;Tissue=Petiole;matched_spectrum_id=12885];[P96:Chinese_name=欧当归;Latin_name=Angelica archangelica;Tissue=Stem;matched_spectrum_id=12885];[P97:Chinese_name=卷叶欧芹;Latin_name=Petroselinum crispum var. crispum;Tissue=Petiole 3;matched_spectrum_id=12885];[P98:Chinese_name=葛缕子;Latin_name=Schisandra chinensis;Tissue=Fruit;matched_spectrum_id=12885];[P99:Chinese_name=平叶欧芹;Latin_name=Petroselinum crispum var. neapolitanum;Tissue=Root 6;matched_spectrum_id=12885];[P100:Chinese_name=白芷;Latin_name=Angelica dahurica;Tissue=Old leaf;matched_spectrum_id=12885];[P101:Chinese_name=明党参;Latin_name=Changium smyrnioides;Tissue=Root;matched_spectrum_id=12885];[P102:Chinese_name=独活;Latin_name=Angelica pubescens;Tissue=Stem;matched_spectrum_id=12885];[P103:Chinese_name=平叶欧芹;Latin_name=Petroselinum crispum var. neapolitanum;Tissue=Root 4;matched_spectrum_id=12885];[P104:Chinese_name=明日叶;Latin_name=Angelica keiskei;Tissue=Young leaf;matched_spectrum_id=12885];[P105:Chinese_name=卷叶欧芹;Latin_name=Petroselinum crispum var. crispum;Tissue=Root 4;matched_spectrum_id=12885];[P106:Chinese_name=茴芹;Latin_name=Anethum graveolens;Tissue=叶片;matched_spectrum_id=12885];[P107:Chinese_name=卷叶欧芹;Latin_name=Petroselinum crispum var. crispum;Tissue=Leaf 5;matched_spectrum_id=12885];[P108:Chinese_name=卷叶欧芹;Latin_name=Petroselinum crispum var. crispum;Tissue=Petiole 1;matched_spectrum_id=12885];[P109:Chinese_name=白芷;Latin_name=Angelica dahurica;Tissue=Root B;matched_spectrum_id=12885];[P110:Chinese_name=宽叶羌活;Latin_name=Notopterygium forbesii;Tissue=Stem;matched_spectrum_id=12885];[P111:Chinese_name=明党参;Latin_name=Changium smyrnioides;Tissue=Leaf;matched_spectrum_id=12885];[P112:Chinese_name=荜拔;Latin_name=Piper longum L.;Tissue=Rhizome;matched_spectrum_id=12885];[P113:Chinese_name=雷公藤;Latin_name=Tripterygium wilfordii;Tissue=Root;matched_spectrum_id=12885];[P114:Chinese_name=毛地黄;Latin_name=Digitalis purpurea;Tissue=Whole plant;matched_spectrum_id=12885];[P115:Chinese_name=巴豆;Latin_name=Croton tiglium L.;Tissue=Twig and leaf;matched_spectrum_id=12885];[P116:Chinese_name=白屈菜;Latin_name=Chelidonium majus;Tissue=Whole plant;matched_spectrum_id=12885];[P117:Chinese_name=活血丹;Latin_name=Glechoma longituba (Nakai) Kupr.;Tissue=Whole plant;matched_spectrum_id=12885];[P118:Chinese_name=盾叶薯蓣;Latin_name=Dioscorea zingiberensis;Tissue=Whole plant;matched_spectrum_id=12885];[P119:Chinese_name=滇白芷;Latin_name=Angelica dahurica;Tissue=Root;matched_spectrum_id=12885];[P120:Chinese_name=菊;Latin_name=Chrysanthemum × morifolium;Tissue=Aerial parts;matched_spectrum_id=12885];[P121:Chinese_name=罗勒;Latin_name=Ocimum basilicum;Tissue=Whole plant;matched_spectrum_id=12885];[P122:Chinese_name=贯叶连翘;Latin_name=Hypericum perforatum;Tissue=Aerial parts;matched_spectrum_id=12885];[P123:Chinese_name=地榆;Latin_name=Sanguisorba officinalis;Tissue=Whole plant;matched_spectrum_id=12885];[P124:Chinese_name=牛至;Latin_name=Origanum vulgare;Tissue=Whole plant;matched_spectrum_id=12885];[P125:Chinese_name=苦枥白蜡树;Latin_name=Fraxinus rhynchophylla Hance;Tissue=Twig and leaf;matched_spectrum_id=12885];[P126:Chinese_name=龙牙草;Latin_name=Agrimonia pilosa Ledeb.;Tissue=Twig and leaf;matched_spectrum_id=12885];[P127:Chinese_name=掌叶大黄;Latin_name=Rheum palmatum;Tissue=Root;matched_spectrum_id=12885];[P128:Chinese_name=短葶飞蓬（灯盏花）;Latin_name=Erigeron breviscapus (Vant.) Hand. -Mazz.;Tissue=Whole plant;matched_spectrum_id=12885];[P129:Chinese_name=常山;Latin_name=Dichroa febrifuga;Tissue=Whole plant;matched_spectrum_id=12885];[P130:Chinese_name=红豆杉;Latin_name=Taxus chinensis;Tissue=Twig and leaf;matched_spectrum_id=12885];[P131:Chinese_name=异形南五味子;Latin_name=Kadsura heteroclita;Tissue=Twig and leaf;matched_spectrum_id=12885];[P132:Chinese_name=番石榴;Latin_name=Psidium guajava;Tissue=Twig and leaf;matched_spectrum_id=12885];[P133:Chinese_name=葛（花）;Latin_name=Pueraria lobata;Tissue=Flower;matched_spectrum_id=12885];[P134:Chinese_name=印度黄芩;Latin_name=Scutellaria indica;Tissue=Whole plant;matched_spectrum_id=12885];[P135:Chinese_name=虎耳草;Latin_name=Saxifraga stolonifera;Tissue=Whole plant;matched_spectrum_id=12885];[P136:Chinese_name=刺山柑;Latin_name=Capparis hainanensis Oliv.;Tissue=Twig and leaf;matched_spectrum_id=12885];[P137:Chinese_name=圣罗勒;Latin_name=Ocimum sanctum;Tissue=Twig and leaf;matched_spectrum_id=12885];[P138:Chinese_name=茴香;Latin_name=Foeniculum vulgare Mill.;Tissue=Aerial parts;matched_spectrum_id=12885];[P139:Chinese_name=沙棘;Latin_name=Hippophae rhamnoides;Tissue=Twig and leaf;matched_spectrum_id=12885];[P140:Chinese_name=侯钩藤;Latin_name=Uncaria rhynchophylloides;Tissue=Twig and leaf;matched_spectrum_id=12885];[P141:Chinese_name=黄芩;Latin_name=Scutellaria baicalensis;Tissue=Root and aerial parts;matched_spectrum_id=12885];[P142:Chinese_name=苍术;Latin_name=Atractylodes lancea;Tissue=Root;matched_spectrum_id=12885];[P143:Chinese_name=地枫皮;Latin_name=Illicium difengpi;Tissue=Twig and leaf;matched_spectrum_id=12885];[P144:Chinese_name=贯众;Latin_name=Cyrtomium fortunei;Tissue=Whole plant;matched_spectrum_id=12885];[P145:Chinese_name=龙葵;Latin_name=Solanum nigrum;Tissue=Whole plant;matched_spectrum_id=12885];[P146:Chinese_name=射干;Latin_name=Belamcanda chinensis;Tissue=Root;matched_spectrum_id=12885];[P147:Chinese_name=菘蓝;Latin_name=Isatis indigotica;Tissue=Aerial parts;matched_spectrum_id=12885];[P148:Chinese_name=飞龙掌血;Latin_name=Toddalia asiatica;Tissue=Twig and leaf;matched_spectrum_id=12885];[P149:Chinese_name=土牛膝;Latin_name=Achyranthes aspera;Tissue=Whole plant;matched_spectrum_id=12885];[P150:Chinese_name=垂序商陆;Latin_name=Phytolacca americana;Tissue=Root;matched_spectrum_id=12885];[P151:Chinese_name=高良姜;Latin_name=Alpinia officinarum;Tissue=Aerial parts;matched_spectrum_id=12885];[P152:Chinese_name=枳;Latin_name=Poncirus trifoliata;Tissue=Fruit;matched_spectrum_id=12885];[P153:Chinese_name=紫苏;Latin_name=Perilla frutescens;Tissue=Aerial parts;matched_spectrum_id=12885];[P154:Chinese_name=菝葜;Latin_name=Smilax china;Tissue=Twig and leaf;matched_spectrum_id=12885];[P155:Chinese_name=天师栗;Latin_name=Aesculus wilsonii;Tissue=Twig and leaf;matched_spectrum_id=12885];[P156:Chinese_name=黄花蒿;Latin_name=Artemisia annua;Tissue=Aerial parts;matched_spectrum_id=12885];[P157:Chinese_name=益母草;Latin_name=Leonurus artemisia;Tissue=Aerial parts;matched_spectrum_id=12885];[P158:Chinese_name=白花蛇舌草;Latin_name=Hedyotis diffusa;Tissue=Whole plant;matched_spectrum_id=12885];[P159:Chinese_name=虎杖;Latin_name=Reynoutria japonica;Tissue=Root;matched_spectrum_id=12885];[P160:Chinese_name=莪术;Latin_name=Curcuma phaeocaulis Valeton;Tissue=Whole plant;matched_spectrum_id=12885];[P161:Chinese_name=铃兰;Latin_name=Convallaria majalis;Tissue=Whole plant;matched_spectrum_id=12885];[P162:Chinese_name=桑;Latin_name=Morus alba;Tissue=Bark and stem;matched_spectrum_id=12885];[P163:Chinese_name=红花石蒜;Latin_name=Lycoris radiata (L'Hér.) Herb.;Tissue=Root;matched_spectrum_id=12885];[P164:Chinese_name=木棉;Latin_name=Bombax malabaricum;Tissue=Bark;matched_spectrum_id=12885];[P165:Chinese_name=朝鲜当归;Latin_name=Angelica gigas;Tissue=Aerial parts;matched_spectrum_id=12885];[P166:Chinese_name=升麻;Latin_name=Actaea cimicifuga;Tissue=Root;matched_spectrum_id=12885];[P167:Chinese_name=两面针;Latin_name=Zanthoxylum nitidum;Tissue=Root;matched_spectrum_id=12885];[P168:Chinese_name=骆驼蓬;Latin_name=Peganum harmala;Tissue=Whole plant;matched_spectrum_id=12885];[P169:Chinese_name=柠檬草;Latin_name=Cymbopogon citratus (DC.) Stapf;Tissue=Twig and leaf;matched_spectrum_id=12885];[P170:Chinese_name=茶;Latin_name=Camellia sinensis;Tissue=Twig and leaf;matched_spectrum_id=12885];[P171:Chinese_name=补骨脂;Latin_name=Psoralea corylifolia;Tissue=Fruit;matched_spectrum_id=12885];[P172:Chinese_name=银杏;Latin_name=Ginkgo biloba L.;Tissue=Twig and leaf;matched_spectrum_id=12885];[P173:Chinese_name=姜黄;Latin_name=Curcuma longa;Tissue=Rhizome;matched_spectrum_id=12885];[P174:Chinese_name=蛇床;Latin_name=Cnidium monnieri;Tissue=Whole plant;matched_spectrum_id=12885];[P175:Chinese_name=水朝阳旋覆花;Latin_name=Inula helianthus-aquatica;Tissue=Flower;matched_spectrum_id=12885];[P176:Chinese_name=蒺藜;Latin_name=Tribulus terrestris;Tissue=Whole plant;matched_spectrum_id=12885];[P177:Chinese_name=板蓝根;Latin_name=Isatis indigotica;Tissue=Root;matched_spectrum_id=12885];[P178:Chinese_name=白头翁;Latin_name=Pulsatilla chinensis;Tissue=Whole plant;matched_spectrum_id=12885];[P179:Chinese_name=鳢肠;Latin_name=Eclipta prostrata;Tissue=Whole plant;matched_spectrum_id=12885];[P180:Chinese_name=白花草木犀;Latin_name=Melilotus alba;Tissue=Whole plant;matched_spectrum_id=12885];[P181:Chinese_name=漆树;Latin_name=Anacardiaceae;Tissue=Bark;matched_spectrum_id=12885];[P182:Chinese_name=益智;Latin_name=Alpinia oxyphylla Miq.;Tissue=Root;matched_spectrum_id=12885];[P183:Chinese_name=魁蒿;Latin_name=Artemisia princeps;Tissue=Whole plant;matched_spectrum_id=12885];[P184:Chinese_name=甘草;Latin_name=Glycyrrhiza uralensis Fisch.;Tissue=Whole plant;matched_spectrum_id=12885];[P185:Chinese_name=蓬子菜;Latin_name=Galium verum;Tissue=Whole plant;matched_spectrum_id=12885];[P186:Chinese_name=冬凌草;Latin_name=Rabdosia rubescens;Tissue=Aerial parts;matched_spectrum_id=12885];[P187:Chinese_name=商陆;Latin_name=Phytolacca acinosa;Tissue=Whole plant;matched_spectrum_id=12885];[P188:Chinese_name=牛蒡;Latin_name=Arctium lappa;Tissue=Whole plant;matched_spectrum_id=12885];[P189:Chinese_name=香茅;Latin_name=Cymbopogon citratus (DC.) Stapf;Tissue=Aerial parts;matched_spectrum_id=12885];[P190:Chinese_name=合欢;Latin_name=Albizia julibrissin;Tissue=Twig and leaf;matched_spectrum_id=12885];[P191:Chinese_name=苦荞麦;Latin_name=Fagopyrum tataricum;Tissue=Stem;matched_spectrum_id=12885];[P192:Chinese_name=红车轴草;Latin_name=Trifolium pratense;Tissue=Whole plant;matched_spectrum_id=12885];[P193:Chinese_name=薄荷;Latin_name=Mentha haplocalyx;Tissue=Whole plant;matched_spectrum_id=12885];[P194:Chinese_name=大叶子;Latin_name=Astilboides tabularis;Tissue=Twig and leaf;matched_spectrum_id=12885];[P195:Chinese_name=灯笼果;Latin_name=Physalis peruviana;Tissue=Whole plant;matched_spectrum_id=12885];[P196:Chinese_name=土木香;Latin_name=Inula helenium L.;Tissue=Whole plant;matched_spectrum_id=12885];[P197:Chinese_name=风龙;Latin_name=Sinomenium acutum;Tissue=Vine stem;matched_spectrum_id=12885];[P198:Chinese_name=白术;Latin_name=Atractylodes macrocephala;Tissue=Rhizome;matched_spectrum_id=12885];[P199:Chinese_name=地胆草;Latin_name=Elephantopus scaber;Tissue=Whole plant;matched_spectrum_id=12885];[P200:Chinese_name=梧桐;Latin_name=Firmiana simplex (L.) W. Wight;Tissue=Twig and leaf;matched_spectrum_id=12885];[P201:Chinese_name=阳芋;Latin_name=Solanum tuberosum;Tissue=Aerial parts;matched_spectrum_id=12885];[P202:Chinese_name=仙人掌;Latin_name=Opuntia stricta var. dillenii;Tissue=Leaf;matched_spectrum_id=12885];[P203:Chinese_name=凤仙花;Latin_name=Impatiens balsamina;Tissue=Aerial parts;matched_spectrum_id=12885];[P204:Chinese_name=佛手;Latin_name=Citrus medica var. sarcodactylis;Tissue=Fruit;matched_spectrum_id=12885];[P205:Chinese_name=广藿香;Latin_name=Pogostemon cablin;Tissue=Twig and leaf;matched_spectrum_id=12885];[P206:Chinese_name=海南山姜;Latin_name=Alpinia hainanensis;Tissue=Whole plant;matched_spectrum_id=12885];[P207:Chinese_name=迷迭香;Latin_name=Rosmarinus officinalis;Tissue=Aerial parts;matched_spectrum_id=12885];[P208:Chinese_name=软枣猕猴桃;Latin_name=Actinidia arguta;Tissue=Twig and leaf;matched_spectrum_id=12885];[P209:Chinese_name=独活;Latin_name=Heracleum hemsleyanum;Tissue=Root;matched_spectrum_id=12885];[P210:Chinese_name=半枝莲;Latin_name=Scutellaria barbata;Tissue=Aerial parts;matched_spectrum_id=12885];[P211:Chinese_name=穿心莲;Latin_name=Andrographis paniculata;Tissue=Whole plant;matched_spectrum_id=12885];[P212:Chinese_name=小驳骨;Latin_name=Gendarussa vulgaris;Tissue=Twig and leaf;matched_spectrum_id=12885];[P213:Chinese_name=竹节草;Latin_name=Chrysopogon aciculatus;Tissue=Whole plant;matched_spectrum_id=12885];[P214:Chinese_name=厚果崖豆藤;Latin_name=Millettia pachycarpa;Tissue=Twig and leaf;matched_spectrum_id=12885];[P215:Chinese_name=决明（子）;Latin_name=Cassia tora;Tissue=Seed;matched_spectrum_id=12885];[P216:Chinese_name=三七;Latin_name=Panax pseudo-ginseng var. notoginseng;Tissue=Aerial parts;matched_spectrum_id=12885];[P217:Chinese_name=荞麦;Latin_name=Fagopyrum esculentum;Tissue=Whole plant;matched_spectrum_id=12885]
115.054710 0.162592
117.068054 0.177262
118.067146 0.709046
119.067932 0.157702
142.066803 0.185819
143.072327 0.354523
144.079681 0.424205
146.059830 1.000000
147.062317 0.165037
170.058685 0.180929
END IONS