BEGIN IONS
STANDARD=Abrine
Chinese_name=小驳骨
Latin_name=Gendarussa vulgaris
Tissue=Twig and leaf
PRECURSOR_MZ=188.070
SCORE=0.907487
matched_spectrum_id=12885
SMILES=CN[C@@H](CC1=CNC2=CC=CC=C21)C(=O)O
DATABASE=GNPS
IONMODE=positive
TITLE=T25102420a_P.2675.2675. File:"T25102420a_P.wiff", NativeID:"sample=1 period=1 cycle=259 experiment=4"
RTINSECONDS=163.419
PEPMASS=188.07005418266
51.02510611 12.6332828348
53.00024049 8.5836718686
55.01621837 19.6770956463
63.02144245 14.0400246622
65.03832269 64.1834858634
65.04525376 9.5092116305
66.03119739 28.7428632264
66.03783372 14.3722384091
67.04275319 14.4810938009
69.07260018 14.698680462
72.9339318 5.0346467576
77.03758342 186.4001577804
78.0492639 15.6246339655
79.05568825 15.7250490304
83.04925429 10.7448920299
84.08087787 21.6228433301
89.03592972 77.8781189334
89.0424016 16.688797821
90.045386 148.0452095316
91.05327912 3015.2158527979
92.05751932 121.0047480804
101.0439995 56.295784999
102.0482536 17.8660372316
103.0403751 17.9526747042
103.0530848 89.4842481265
103.0651327 26.9323633627
104.0461616 9.0200284558
105.0687009 60.4285621109
106.0675803 48.5713053393
107.0488677 24.3980558949
111.0421258 6.2122378486
113.0396852 31.3390166684
114.0468082 97.5839321636
114.6977514 37.8823097875
114.9451699 6.3204726283
115.0371361 11.4415751925
115.0535446 7624.16025913
115.0942008 18.9737060073
115.6958189 19.0232308662
115.7078975 38.049068304
116.0579566 1329.9211549693
116.0864263 12.4010790055
116.7057919 38.2121652079
117.0595309 5343.9624908942
117.1679789 31.9064631518
117.514648 31.953629684
117.680561 19.1857071579
117.7080073 275.8629256609
117.7353837 19.1901755663
117.8636795 25.6007197215
118.0647981 33146.2668195136
118.2484409 12.8212951811
118.337749 19.2392039353
118.6096969 19.2612977321
118.6601486 38.5301669338
118.6737015 28.899828374
118.6796441 32.1125064245
118.7037291 32.1149888738
118.7183926 25.6936046907
118.7434937 25.6962112623
118.7549655 19.2730893653
118.7645257 12.8492641075
118.8108028 12.8517465565
118.8391089 19.2799161002
118.8911398 6.4280454214
118.9584908 19.2895976515
118.9829868 19.2915836108
118.9949076 57.8788468734
119.067815 2705.3927555606
119.0986112 25.1218777492
119.1660209 25.7418883252
119.2104605 12.8733438635
119.2725364 6.4383475848
119.390602 19.3246001835
119.5835973 25.7870688982
120.0061509 29.0613737473
120.0394688 12.9180279467
120.9500648 12.9669321935
121.0805411 6.4869622124
121.8269162 13.0138504809
126.0501801 52.9497455755
127.05344 1459.9345510435
127.0904368 19.9380133489
128.0511402 736.3636314618
128.0808338 60.0478867491
128.8617129 13.3843146304
129.0558694 120.1507173816
129.0649714 40.1857122194
130.0648031 127.7432599647
131.0506618 26.9950286167
131.0675343 33.7459579134
132.0433855 84.6779109243
132.0802288 384.333448951
133.084728 51.0067574761
133.0993018 27.2052093046
140.0526854 269.3480234301
141.0614282 188.128622778
141.6352627 49.1123840048
141.6539825 7.0164685992
142.0648053 4807.666533183
142.1062469 31.3735758674
142.6308944 38.7233262601
142.6447611 66.8895743484
143.0721709 10975.2893494604
143.5564447 7.063428261
143.627298 49.4562032013
143.6442705 127.1834552152
143.6974245 10.6003555343
144.0518394 239.30605312
144.0799096 6230.192740497
145.0522178 42.6006386757
145.083869 642.5505991151
145.6136381 113.8218756808
145.6248495 49.7999396493
145.9392265 21.3654215647
146.0595969 15573.7173714512
146.1026903 24.4312633392
146.325246 14.2624396153
146.4118522 28.5333195575
146.5715464 49.9612574647
146.7636345 49.9939844182
146.8010468 28.5712182798
147.0623595 1382.3501760787
147.8053022 35.8359731606
152.0529413 29.0778033871
155.0582039 201.0911883171
159.0678702 133.8343913925
160.0742022 446.1930715324
160.0967434 22.3777642961
161.0750405 22.4460316456
170.0590342 2825.9266286744
170.1108254 46.1334119486
171.0638326 319.2534213522
173.0424241 15.5099530216
188.0697011 859.9684105606
188.1020989 7.9891562746
188.1319274 24.2580953446
188.1569564 8.0865696454
189.0746988 145.9128507828
END IONS