BEGIN IONS
STANDARD_ID=40555
TITLE=Decursinol angelate
COMPOUND_NAME=Decursinol angelate
PRECURSOR_MZ=329.1373
PARENT_MASS=328.13107374
SMILES=CC=C(C)C(=O)OC1Cc2cc3ccc(=O)oc3cc2OC1(C)C
INCHIKEY=AGABNGOXUSXQDD-UHFFFAOYSA-N
IONMODE=positive
DATABASE=ATNP
PLANTS=[{"pid": "P1", "chinese_name": "岩败酱", "latin_name": "Patrinia rupestris", "tissue": "Whole plant", "precursor_mz": 329.138177, "ionmode": "positive", "score": 0.832921, "smiles": "O=C1OC=2C=C3OC(C)(C)C(OC(=O)C(=CC)C)CC3=CC2C=C1", "database": "gnps", "peaks": [[214.0632453, 994.529971161], [229.0857696, 19423.1173165637], [247.098223, 1562.7129134866], [329.1387693, 6272.1411407023]]}, {"pid": "P2", "chinese_name": "日本当归", "latin_name": "Angelica acutiloba", "tissue": "Leaf", "precursor_mz": 329.139, "ionmode": "positive", "score": 0.832448, "smiles": "O=C1OC=2C=C3OC(C)(C)C(OC(=O)C(=CC)C)CC3=CC2C=C1", "database": "gnps", "peaks": [[214.0588393, 21.566679362], [229.0813387, 368.2315958346], [247.090245, 37.0740136108], [329.1414439, 133.7140892683]]}, {"pid": "P3", "chinese_name": "平叶欧芹", "latin_name": "Petroselinum crispum var. neapolitanum", "tissue": "Petiole 6", "precursor_mz": 329.139, "ionmode": "positive", "score": 0.792163, "smiles": "O=C1OC=2C=C3OC(C)(C)C(OC(=O)C(=CC)C)CC3=CC2C=C1", "database": "gnps", "peaks": [[173.0956791, 124.118324176], [229.083619, 2458.4293597869], [247.0971376, 166.8325940254], [329.1425432, 514.8633753298], [329.2243379, 128.3818042973]]}, {"pid": "P4", "chinese_name": "日本当归", "latin_name": "Angelica acutiloba", "tissue": "Taproot", "precursor_mz": 329.139, "ionmode": "positive", "score": 0.809807, "smiles": "O=C1OC=2C=C3OC(C)(C)C(OC(=O)C(=CC)C)CC3=CC2C=C1", "database": "gnps", "peaks": [[229.0858316, 18231.5609548241], [247.0983457, 1103.3920473926], [329.1382711, 7616.3417299252]]}, {"pid": "P5", "chinese_name": "朝鲜当归", "latin_name": "Angelica gigas", "tissue": "Leaf", "precursor_mz": 329.139, "ionmode": "positive", "score": 0.859985, "smiles": "O=C1OC=2C=C3OC(C)(C)C(OC(=O)C(=CC)C)CC3=CC2C=C1", "database": "gnps", "peaks": [[213.0547358, 29440.9814272998], [214.0625774, 27427.0707347485], [229.0869704, 480814.0734139784], [247.0965165, 58083.9648657723], [329.140712, 270298.5288658563]]}, {"pid": "P6", "chinese_name": "葛缕子", "latin_name": "Schisandra chinensis", "tissue": "Stem", "precursor_mz": 329.139, "ionmode": "positive", "score": 0.70634, "smiles": "O=C1OC=2C=C3OC(C)(C)C(OC(=O)C(=CC)C)CC3=CC2C=C1", "database": "gnps", "peaks": [[213.0565873, 38.728714575], [229.0873691, 492.4326853779], [329.1147311, 29.4158830524], [329.1405771, 317.3496642547]]}, {"pid": "P7", "chinese_name": "葛缕子", "latin_name": "Schisandra chinensis", "tissue": "Leaf", "precursor_mz": 329.138, "ionmode": "positive", "score": 0.703349, "smiles": "O=C1OC=2C=C3OC(C)(C)C(OC(=O)C(=CC)C)CC3=CC2C=C1", "database": "gnps", "peaks": [[185.0856659, 20.0541048596], [213.0549626, 47.3354476236], [214.0622823, 21.5668053349], [229.087422, 154.4754947546], [229.0968079, 15.6180259755], [247.1120651, 41.7091674052], [329.1388355, 131.0386076671], [329.1654411, 16.0463128525]]}, {"pid": "P8", "chinese_name": "日本当归", "latin_name": "Angelica acutiloba", "tissue": "Stem", "precursor_mz": 329.139, "ionmode": "positive", "score": 0.711379, "smiles": "O=C1OC=2C=C3OC(C)(C)C(OC(=O)C(=CC)C)CC3=CC2C=C1", "database": "gnps", "peaks": [[98.98550523, 29.3314547537], [229.0839256, 547.5707757071], [247.0764818, 27.8043805454], [247.0967102, 41.7082470274], [247.1040662, 27.8059946734], [329.1311813, 74.8783740494], [329.1508089, 112.3218550668]]}, {"pid": "P9", "chinese_name": "朝鲜当归", "latin_name": "Angelica gigas", "tissue": "Inflorescence", "precursor_mz": 329.139, "ionmode": "positive", "score": 0.876488, "smiles": "O=C1OC=2C=C3OC(C)(C)C(OC(=O)C(=CC)C)CC3=CC2C=C1", "database": "gnps", "peaks": [[229.0860579, 632483.816600161], [247.0973538, 141695.594664297], [329.1388491, 282775.7612441989]]}, {"pid": "P10", "chinese_name": "朝鲜当归", "latin_name": "Angelica gigas", "tissue": "Stem", "precursor_mz": 329.139, "ionmode": "positive", "score": 0.895503, "smiles": "O=C1OC=2C=C3OC(C)(C)C(OC(=O)C(=CC)C)CC3=CC2C=C1", "database": "gnps", "peaks": [[213.0568016, 56249.5415614155], [214.0643387, 52169.4422381644], [229.0894516, 919894.3052972227], [247.1000384, 214725.4626899111], [329.145637, 339111.0150789856]]}, {"pid": "P11", "chinese_name": "朝鲜当归", "latin_name": "Angelica gigas", "tissue": "Taproot", "precursor_mz": 329.139, "ionmode": "positive", "score": 0.878154, "smiles": "O=C1OC=2C=C3OC(C)(C)C(OC(=O)C(=CC)C)CC3=CC2C=C1", "database": "gnps", "peaks": [[213.0553329, 47009.4632283342], [214.0628497, 45930.3166063417], [229.0874925, 887384.9096054822], [247.0971617, 142526.591908003], [329.1405056, 457988.4954238359]]}, {"pid": "P12", "chinese_name": "平叶欧芹", "latin_name": "Petroselinum crispum var. neapolitanum", "tissue": "Leaf 6", "precursor_mz": 329.139, "ionmode": "positive", "score": 0.84948, "smiles": "O=C1OC=2C=C3OC(C)(C)C(OC(=O)C(=CC)C)CC3=CC2C=C1", "database": "gnps", "peaks": [[229.0870487, 103708.7100676738], [247.0965054, 20761.2733447094], [329.1405904, 40735.3955046326]]}, {"pid": "P13", "chinese_name": "朝鲜当归", "latin_name": "Angelica gigas", "tissue": "Fibrous root", "precursor_mz": 329.138, "ionmode": "positive", "score": 0.87648, "smiles": "O=C1OC=2C=C3OC(C)(C)C(OC(=O)C(=CC)C)CC3=CC2C=C1", "database": "gnps", "peaks": [[213.0567379, 23492.5687695683], [214.064967, 24574.240713392], [229.0896738, 423119.4722385017], [247.1003816, 87116.9055951377], [329.1424686, 120013.4803108204]]}, {"pid": "P14", "chinese_name": "日本当归", "latin_name": "Angelica acutiloba", "tissue": "Fibrous root", "precursor_mz": 329.138, "ionmode": "positive", "score": 0.775364, "smiles": "O=C1OC=2C=C3OC(C)(C)C(OC(=O)C(=CC)C)CC3=CC2C=C1", "database": "gnps", "peaks": [[229.0864558, 3105.9883086458], [247.0924599, 198.8305466872], [329.1405581, 788.6570612837]]}, {"pid": "P15", "chinese_name": "平叶欧芹", "latin_name": "Petroselinum crispum var. neapolitanum", "tissue": "Root 6", "precursor_mz": 329.138, "ionmode": "positive", "score": 0.75147, "smiles": "O=C1OC=2C=C3OC(C)(C)C(OC(=O)C(=CC)C)CC3=CC2C=C1", "database": "gnps", "peaks": [[229.0878239, 2573.1792349711], [247.0930078, 446.7629322928], [329.1196685, 217.2442290749], [329.1417555, 424.3213304565]]}, {"pid": "P16", "chinese_name": "茴香", "latin_name": "Foeniculum vulgare Mill.", "tissue": "Aerial parts", "precursor_mz": 329.138, "ionmode": "positive", "score": 0.733727, "smiles": "O=C1OC=2C=C3OC(C)(C)C(OC(=O)C(=CC)C)CC3=CC2C=C1", "database": "gnps", "peaks": [[98.98428879, 682.6760544412], [213.0554272, 207.4406215245], [214.0607241, 270.8741311144], [229.0852015, 3425.2020880937], [230.0872194, 380.3682336914], [247.095992, 552.377872071], [329.1366577, 606.3229627524]]}, {"pid": "P17", "chinese_name": "贯众", "latin_name": "Cyrtomium fortunei", "tissue": "Whole plant", "precursor_mz": 329.137, "ionmode": "positive", "score": 0.745733, "smiles": "O=C1OC=2C=C3OC(C)(C)C(OC(=O)C(=CC)C)CC3=CC2C=C1", "database": "gnps", "peaks": [[211.0750858, 255.7241210426], [213.0518662, 277.8155367113], [214.059738, 520.805281282], [229.0850763, 3621.8182216837], [230.0845662, 496.7237939362], [247.0991917, 409.620733782], [329.148362, 750.3379641396]]}, {"pid": "P18", "chinese_name": "垂序商陆", "latin_name": "Phytolacca americana", "tissue": "Root", "precursor_mz": 329.138, "ionmode": "positive", "score": 0.743641, "smiles": "O=C1OC=2C=C3OC(C)(C)C(OC(=O)C(=CC)C)CC3=CC2C=C1", "database": "gnps", "peaks": [[98.98388582, 831.1206099726], [213.0542594, 186.74838577], [214.0638719, 224.5662088938], [229.0860727, 2228.0584916819], [230.0901671, 322.4578707298], [247.0967744, 418.3382728661], [329.139208, 439.1456454645]]}, {"pid": "P19", "chinese_name": "朝鲜当归", "latin_name": "Angelica gigas", "tissue": "Aerial parts", "precursor_mz": 329.141, "ionmode": "positive", "score": 0.867633, "smiles": "O=C1OC=2C=C3OC(C)(C)C(OC(=O)C(=CC)C)CC3=CC2C=C1", "database": "gnps", "peaks": [[211.075883, 94496.589601266], [213.054941, 129420.0399137475], [214.0622863, 153654.5932766548], [229.0935724, 1423376.6430605117], [230.0904397, 195125.4483928149], [247.0968879, 378273.7021447115], [329.1389495, 219306.4587721972]]}, {"pid": "P20", "chinese_name": "商陆", "latin_name": "Phytolacca acinosa", "tissue": "Whole plant", "precursor_mz": 329.139, "ionmode": "positive", "score": 0.720996, "smiles": "O=C1OC=2C=C3OC(C)(C)C(OC(=O)C(=CC)C)CC3=CC2C=C1", "database": "gnps", "peaks": [[98.98366934, 294.1004163651], [211.0730938, 196.3806150747], [213.0532819, 137.6801473191], [214.0635479, 159.1566378418], [229.0855612, 1455.2741448852], [230.0841099, 276.5725827998], [247.0932555, 286.8373793746], [329.1335712, 170.8690361441], [329.1617534, 170.749329542], [329.2031144, 74.8751095035], [330.1358839, 96.4042838051], [330.2488047, 171.4120589577]]}, {"pid": "P21", "chinese_name": "合欢", "latin_name": "Albizia julibrissin", "tissue": "Twig and leaf", "precursor_mz": 329.139, "ionmode": "positive", "score": 0.863533, "smiles": "O=C1OC=2C=C3OC(C)(C)C(OC(=O)C(=CC)C)CC3=CC2C=C1", "database": "gnps", "peaks": [[213.0544703, 15340.1849264364], [214.0625866, 18861.6340670742], [229.0859319, 278213.8822996044], [230.0898364, 33427.1477501433], [247.0970965, 54064.2540313887], [329.1389937, 52462.0765215414]]}, {"pid": "P22", "chinese_name": "独活", "latin_name": "Heracleum hemsleyanum", "tissue": "Root", "precursor_mz": 329.138, "ionmode": "positive", "score": 0.761293, "smiles": "O=C1OC=2C=C3OC(C)(C)C(OC(=O)C(=CC)C)CC3=CC2C=C1", "database": "gnps", "peaks": [[98.98422429, 482.8374214989], [214.0593418, 191.3983245679], [229.0865599, 3424.9902364346], [230.0888099, 413.2657291949], [247.0966363, 523.2527204964], [329.1413589, 723.5873435521]]}]
83.048927 0.069318
211.074799 0.059684
214.061829 0.069269
229.085312 1.0
247.095764 0.102388
END IONS