BEGIN IONS
STANDARD=Decursinol angelate
Chinese_name=贯众
Latin_name=Cyrtomium fortunei
Tissue=Whole plant
PRECURSOR_MZ=329.137
SCORE=0.745733
matched_spectrum_id=40555
SMILES=O=C1OC=2C=C3OC(C)(C)C(OC(=O)C(=CC)C)CC3=CC2C=C1
DATABASE=GNPS
IONMODE=positive
TITLE=T25102427a_P.7279.7279. File:"T25102427a_P.wiff", NativeID:"sample=1 period=1 cycle=462 experiment=5"
RTINSECONDS=412.282
PEPMASS=329.136961749414
211.0750858 255.7241210426
213.0518662 277.8155367113
214.059738 520.805281282
229.0850763 3621.8182216837
230.0845662 496.7237939362
247.0991917 409.620733782
329.148362 750.3379641396
END IONS